NAME : rat575.tour
COMMENT : Optimum tour for rat575.tsp (Length 6773)
TYPE : TOUR
DIMENSION : 575
TOUR_SECTION
429
430
431
432
433
434
435
436
414
437
460
459
458
482
483
506
529
528
527
549
550
551
552
575
574
573
572
571
570
569
547
548
546
568
545
567
566
543
542
565
564
563
540
517
541
518
495
496
519
520
544
521
522
523
524
501
502
503
525
526
504
505
481
480
479
457
456
455
454
453
476
477
478
500
499
498
497
474
475
452
451
450
473
472
471
448
447
446
468
445
444
443
467
466
490
491
469
470
494
493
516
492
514
515
538
539
562
561
560
559
558
556
555
554
553
530
531
532
533
534
557
535
536
537
513
512
489
488
511
487
510
509
508
507
485
484
461
462
463
486
464
465
442
440
439
438
415
416
417
441
420
421
396
419
418
394
393
392
369
370
371
372
395
373
374
351
352
353
329
305
328
327
326
350
349
348
347
346
323
324
325
300
301
302
303
304
281
282
257
280
279
278
277
255
254
231
208
209
186
185
162
163
140
139
141
118
95
117
116
94
93
71
70
47
48
49
72
73
74
51
50
52
29
28
27
26
25
24
1
2
3
4
5
6
7
30
8
9
10
11
34
35
13
12
14
15
17
18
19
20
21
22
23
46
45
44
43
42
41
40
16
39
38
37
36
59
58
57
33
32
31
53
54
55
56
80
79
78
77
76
75
98
97
96
119
120
121
144
143
142
164
165
166
167
145
168
169
170
171
172
173
150
149
127
148
147
146
122
124
123
99
100
101
125
126
103
102
104
81
82
60
61
62
63
64
65
87
86
85
84
83
106
105
129
130
128
151
152
153
154
178
156
155
133
132
131
108
107
109
110
88
89
90
66
67
68
69
92
115
138
114
91
113
112
111
134
135
136
158
159
137
161
160
183
184
207
206
229
205
204
181
182
157
180
179
203
202
201
177
176
175
174
196
197
221
198
199
200
222
224
223
246
247
248
249
225
226
227
228
230
253
252
251
250
272
271
270
292
269
268
267
245
244
243
220
219
218
241
242
265
266
290
289
288
287
286
262
263
264
240
239
238
237
236
213
214
215
216
217
195
194
193
192
191
190
189
188
187
212
211
210
233
232
256
234
235
258
259
260
261
283
306
284
285
307
330
308
331
332
309
310
311
312
334
335
313
336
337
360
383
359
358
357
356
333
355
354
378
379
380
381
382
384
385
361
362
363
386
364
365
341
340
338
339
317
316
315
314
291
293
294
295
318
296
297
273
274
275
276
299
298
321
322
345
344
320
319
343
342
366
368
367
390
391
413
389
412
411
388
410
387
409
408
407
406
405
404
403
402
401
400
377
376
375
397
398
399
422
423
424
425
426
449
427
428
-1
EOF
